p wcnf 176 448
w -2 0.367879 0
w 2 2.718282 0
w -3 0.367879 0
w 3 2.718282 0
w -5 0.367879 0
w 5 2.718282 0
w -6 0.367879 0
w 6 2.718282 0
w -8 0.367879 0
w 8 2.718282 0
w -9 0.367879 0
w 9 2.718282 0
w -11 0.367879 0
w 11 2.718282 0
w -12 0.367879 0
w 12 2.718282 0
w -14 0.367879 0
w 14 2.718282 0
w -15 0.367879 0
w 15 2.718282 0
w -17 0.367879 0
w 17 2.718282 0
w -18 0.367879 0
w 18 2.718282 0
w -20 0.367879 0
w 20 2.718282 0
w -21 0.367879 0
w 21 2.718282 0
w -23 0.367879 0
w 23 2.718282 0
w -25 0.367879 0
w 25 2.718282 0
w -26 0.367879 0
w 26 2.718282 0
w -28 0.367879 0
w 28 2.718282 0
w -29 0.367879 0
w 29 2.718282 0
w -31 0.367879 0
w 31 2.718282 0
w -32 0.367879 0
w 32 2.718282 0
w -34 0.367879 0
w 34 2.718282 0
w -35 0.367879 0
w 35 2.718282 0
w -37 0.367879 0
w 37 2.718282 0
w -38 0.367879 0
w 38 2.718282 0
w -40 0.367879 0
w 40 2.718282 0
w -41 0.367879 0
w 41 2.718282 0
w -43 0.367879 0
w 43 2.718282 0
w -44 0.367879 0
w 44 2.718282 0
w -46 0.367879 0
w 46 2.718282 0
w -48 0.367879 0
w 48 2.718282 0
w -49 0.367879 0
w 49 2.718282 0
w -51 0.367879 0
w 51 2.718282 0
w -52 0.367879 0
w 52 2.718282 0
w -54 0.367879 0
w 54 2.718282 0
w -55 0.367879 0
w 55 2.718282 0
w -57 0.367879 0
w 57 2.718282 0
w -58 0.367879 0
w 58 2.718282 0
w -60 0.367879 0
w 60 2.718282 0
w -61 0.367879 0
w 61 2.718282 0
w -63 0.367879 0
w 63 2.718282 0
w -64 0.367879 0
w 64 2.718282 0
w -66 0.367879 0
w 66 2.718282 0
w -67 0.367879 0
w 67 2.718282 0
w -69 0.367879 0
w 69 2.718282 0
w -71 0.367879 0
w 71 2.718282 0
w -72 0.367879 0
w 72 2.718282 0
w -74 0.367879 0
w 74 2.718282 0
w -75 0.367879 0
w 75 2.718282 0
w -77 0.367879 0
w 77 2.718282 0
w -78 0.367879 0
w 78 2.718282 0
w -80 0.367879 0
w 80 2.718282 0
w -81 0.367879 0
w 81 2.718282 0
w -83 0.367879 0
w 83 2.718282 0
w -84 0.367879 0
w 84 2.718282 0
w -86 0.367879 0
w 86 2.718282 0
w -87 0.367879 0
w 87 2.718282 0
w -89 0.367879 0
w 89 2.718282 0
w -90 0.367879 0
w 90 2.718282 0
w -92 0.367879 0
w 92 2.718282 0
w -94 0.367879 0
w 94 2.718282 0
w -95 0.367879 0
w 95 2.718282 0
w -97 0.367879 0
w 97 2.718282 0
w -98 0.367879 0
w 98 2.718282 0
w -100 0.367879 0
w 100 2.718282 0
w -101 0.367879 0
w 101 2.718282 0
w -103 0.367879 0
w 103 2.718282 0
w -104 0.367879 0
w 104 2.718282 0
w -106 0.367879 0
w 106 2.718282 0
w -107 0.367879 0
w 107 2.718282 0
w -109 0.367879 0
w 109 2.718282 0
w -110 0.367879 0
w 110 2.718282 0
w -112 0.367879 0
w 112 2.718282 0
w -113 0.367879 0
w 113 2.718282 0
w -115 0.367879 0
w 115 2.718282 0
w -117 0.367879 0
w 117 2.718282 0
w -118 0.367879 0
w 118 2.718282 0
w -120 0.367879 0
w 120 2.718282 0
w -121 0.367879 0
w 121 2.718282 0
w -123 0.367879 0
w 123 2.718282 0
w -124 0.367879 0
w 124 2.718282 0
w -126 0.367879 0
w 126 2.718282 0
w -127 0.367879 0
w 127 2.718282 0
w -129 0.367879 0
w 129 2.718282 0
w -130 0.367879 0
w 130 2.718282 0
w -132 0.367879 0
w 132 2.718282 0
w -133 0.367879 0
w 133 2.718282 0
w -135 0.367879 0
w 135 2.718282 0
w -136 0.367879 0
w 136 2.718282 0
w -138 0.367879 0
w 138 2.718282 0
w -140 0.367879 0
w 140 2.718282 0
w -141 0.367879 0
w 141 2.718282 0
w -143 0.367879 0
w 143 2.718282 0
w -144 0.367879 0
w 144 2.718282 0
w -146 0.367879 0
w 146 2.718282 0
w -147 0.367879 0
w 147 2.718282 0
w -149 0.367879 0
w 149 2.718282 0
w -150 0.367879 0
w 150 2.718282 0
w -152 0.367879 0
w 152 2.718282 0
w -153 0.367879 0
w 153 2.718282 0
w -155 0.367879 0
w 155 2.718282 0
w -156 0.367879 0
w 156 2.718282 0
w -158 0.367879 0
w 158 2.718282 0
w -159 0.367879 0
w 159 2.718282 0
w -161 0.367879 0
w 161 2.718282 0
w -163 0.367879 0
w 163 2.718282 0
w -165 0.367879 0
w 165 2.718282 0
w -167 0.367879 0
w 167 2.718282 0
w -169 0.367879 0
w 169 2.718282 0
w -171 0.367879 0
w 171 2.718282 0
w -173 0.367879 0
w 173 2.718282 0
w -175 0.367879 0
w 175 2.718282 0
2 1 4 0
2 -1 -4 0
-2 1 -4 0
-2 -1 4 0
3 1 24 0
3 -1 -24 0
-3 1 -24 0
-3 -1 24 0
5 4 7 0
5 -4 -7 0
-5 4 -7 0
-5 -4 7 0
6 4 27 0
6 -4 -27 0
-6 4 -27 0
-6 -4 27 0
8 7 10 0
8 -7 -10 0
-8 7 -10 0
-8 -7 10 0
9 7 30 0
9 -7 -30 0
-9 7 -30 0
-9 -7 30 0
11 10 13 0
11 -10 -13 0
-11 10 -13 0
-11 -10 13 0
12 10 33 0
12 -10 -33 0
-12 10 -33 0
-12 -10 33 0
14 13 16 0
14 -13 -16 0
-14 13 -16 0
-14 -13 16 0
15 13 36 0
15 -13 -36 0
-15 13 -36 0
-15 -13 36 0
17 16 19 0
17 -16 -19 0
-17 16 -19 0
-17 -16 19 0
18 16 39 0
18 -16 -39 0
-18 16 -39 0
-18 -16 39 0
20 19 22 0
20 -19 -22 0
-20 19 -22 0
-20 -19 22 0
21 19 42 0
21 -19 -42 0
-21 19 -42 0
-21 -19 42 0
23 22 45 0
23 -22 -45 0
-23 22 -45 0
-23 -22 45 0
25 24 27 0
25 -24 -27 0
-25 24 -27 0
-25 -24 27 0
26 24 47 0
26 -24 -47 0
-26 24 -47 0
-26 -24 47 0
28 27 30 0
28 -27 -30 0
-28 27 -30 0
-28 -27 30 0
29 27 50 0
29 -27 -50 0
-29 27 -50 0
-29 -27 50 0
31 30 33 0
31 -30 -33 0
-31 30 -33 0
-31 -30 33 0
32 30 53 0
32 -30 -53 0
-32 30 -53 0
-32 -30 53 0
34 33 36 0
34 -33 -36 0
-34 33 -36 0
-34 -33 36 0
35 33 56 0
35 -33 -56 0
-35 33 -56 0
-35 -33 56 0
37 36 39 0
37 -36 -39 0
-37 36 -39 0
-37 -36 39 0
38 36 59 0
38 -36 -59 0
-38 36 -59 0
-38 -36 59 0
40 39 42 0
40 -39 -42 0
-40 39 -42 0
-40 -39 42 0
41 39 62 0
41 -39 -62 0
-41 39 -62 0
-41 -39 62 0
43 42 45 0
43 -42 -45 0
-43 42 -45 0
-43 -42 45 0
44 42 65 0
44 -42 -65 0
-44 42 -65 0
-44 -42 65 0
46 45 68 0
46 -45 -68 0
-46 45 -68 0
-46 -45 68 0
48 47 50 0
48 -47 -50 0
-48 47 -50 0
-48 -47 50 0
49 47 70 0
49 -47 -70 0
-49 47 -70 0
-49 -47 70 0
51 50 53 0
51 -50 -53 0
-51 50 -53 0
-51 -50 53 0
52 50 73 0
52 -50 -73 0
-52 50 -73 0
-52 -50 73 0
54 53 56 0
54 -53 -56 0
-54 53 -56 0
-54 -53 56 0
55 53 76 0
55 -53 -76 0
-55 53 -76 0
-55 -53 76 0
57 56 59 0
57 -56 -59 0
-57 56 -59 0
-57 -56 59 0
58 56 79 0
58 -56 -79 0
-58 56 -79 0
-58 -56 79 0
60 59 62 0
60 -59 -62 0
-60 59 -62 0
-60 -59 62 0
61 59 82 0
61 -59 -82 0
-61 59 -82 0
-61 -59 82 0
63 62 65 0
63 -62 -65 0
-63 62 -65 0
-63 -62 65 0
64 62 85 0
64 -62 -85 0
-64 62 -85 0
-64 -62 85 0
66 65 68 0
66 -65 -68 0
-66 65 -68 0
-66 -65 68 0
67 65 88 0
67 -65 -88 0
-67 65 -88 0
-67 -65 88 0
69 68 91 0
69 -68 -91 0
-69 68 -91 0
-69 -68 91 0
71 70 73 0
71 -70 -73 0
-71 70 -73 0
-71 -70 73 0
72 70 93 0
72 -70 -93 0
-72 70 -93 0
-72 -70 93 0
74 73 76 0
74 -73 -76 0
-74 73 -76 0
-74 -73 76 0
75 73 96 0
75 -73 -96 0
-75 73 -96 0
-75 -73 96 0
77 76 79 0
77 -76 -79 0
-77 76 -79 0
-77 -76 79 0
78 76 99 0
78 -76 -99 0
-78 76 -99 0
-78 -76 99 0
80 79 82 0
80 -79 -82 0
-80 79 -82 0
-80 -79 82 0
81 79 102 0
81 -79 -102 0
-81 79 -102 0
-81 -79 102 0
83 82 85 0
83 -82 -85 0
-83 82 -85 0
-83 -82 85 0
84 82 105 0
84 -82 -105 0
-84 82 -105 0
-84 -82 105 0
86 85 88 0
86 -85 -88 0
-86 85 -88 0
-86 -85 88 0
87 85 108 0
87 -85 -108 0
-87 85 -108 0
-87 -85 108 0
89 88 91 0
89 -88 -91 0
-89 88 -91 0
-89 -88 91 0
90 88 111 0
90 -88 -111 0
-90 88 -111 0
-90 -88 111 0
92 91 114 0
92 -91 -114 0
-92 91 -114 0
-92 -91 114 0
94 93 96 0
94 -93 -96 0
-94 93 -96 0
-94 -93 96 0
95 93 116 0
95 -93 -116 0
-95 93 -116 0
-95 -93 116 0
97 96 99 0
97 -96 -99 0
-97 96 -99 0
-97 -96 99 0
98 96 119 0
98 -96 -119 0
-98 96 -119 0
-98 -96 119 0
100 99 102 0
100 -99 -102 0
-100 99 -102 0
-100 -99 102 0
101 99 122 0
101 -99 -122 0
-101 99 -122 0
-101 -99 122 0
103 102 105 0
103 -102 -105 0
-103 102 -105 0
-103 -102 105 0
104 102 125 0
104 -102 -125 0
-104 102 -125 0
-104 -102 125 0
106 105 108 0
106 -105 -108 0
-106 105 -108 0
-106 -105 108 0
107 105 128 0
107 -105 -128 0
-107 105 -128 0
-107 -105 128 0
109 108 111 0
109 -108 -111 0
-109 108 -111 0
-109 -108 111 0
110 108 131 0
110 -108 -131 0
-110 108 -131 0
-110 -108 131 0
112 111 114 0
112 -111 -114 0
-112 111 -114 0
-112 -111 114 0
113 111 134 0
113 -111 -134 0
-113 111 -134 0
-113 -111 134 0
115 114 137 0
115 -114 -137 0
-115 114 -137 0
-115 -114 137 0
117 116 119 0
117 -116 -119 0
-117 116 -119 0
-117 -116 119 0
118 116 139 0
118 -116 -139 0
-118 116 -139 0
-118 -116 139 0
120 119 122 0
120 -119 -122 0
-120 119 -122 0
-120 -119 122 0
121 119 142 0
121 -119 -142 0
-121 119 -142 0
-121 -119 142 0
123 122 125 0
123 -122 -125 0
-123 122 -125 0
-123 -122 125 0
124 122 145 0
124 -122 -145 0
-124 122 -145 0
-124 -122 145 0
126 125 128 0
126 -125 -128 0
-126 125 -128 0
-126 -125 128 0
127 125 148 0
127 -125 -148 0
-127 125 -148 0
-127 -125 148 0
129 128 131 0
129 -128 -131 0
-129 128 -131 0
-129 -128 131 0
130 128 151 0
130 -128 -151 0
-130 128 -151 0
-130 -128 151 0
132 131 134 0
132 -131 -134 0
-132 131 -134 0
-132 -131 134 0
133 131 154 0
133 -131 -154 0
-133 131 -154 0
-133 -131 154 0
135 134 137 0
135 -134 -137 0
-135 134 -137 0
-135 -134 137 0
136 134 157 0
136 -134 -157 0
-136 134 -157 0
-136 -134 157 0
138 137 160 0
138 -137 -160 0
-138 137 -160 0
-138 -137 160 0
140 139 142 0
140 -139 -142 0
-140 139 -142 0
-140 -139 142 0
141 139 162 0
141 -139 -162 0
-141 139 -162 0
-141 -139 162 0
143 142 145 0
143 -142 -145 0
-143 142 -145 0
-143 -142 145 0
144 142 164 0
144 -142 -164 0
-144 142 -164 0
-144 -142 164 0
146 145 148 0
146 -145 -148 0
-146 145 -148 0
-146 -145 148 0
147 145 166 0
147 -145 -166 0
-147 145 -166 0
-147 -145 166 0
149 148 151 0
149 -148 -151 0
-149 148 -151 0
-149 -148 151 0
150 148 168 0
150 -148 -168 0
-150 148 -168 0
-150 -148 168 0
152 151 154 0
152 -151 -154 0
-152 151 -154 0
-152 -151 154 0
153 151 170 0
153 -151 -170 0
-153 151 -170 0
-153 -151 170 0
155 154 157 0
155 -154 -157 0
-155 154 -157 0
-155 -154 157 0
156 154 172 0
156 -154 -172 0
-156 154 -172 0
-156 -154 172 0
158 157 160 0
158 -157 -160 0
-158 157 -160 0
-158 -157 160 0
159 157 174 0
159 -157 -174 0
-159 157 -174 0
-159 -157 174 0
161 160 176 0
161 -160 -176 0
-161 160 -176 0
-161 -160 176 0
163 162 164 0
163 -162 -164 0
-163 162 -164 0
-163 -162 164 0
165 164 166 0
165 -164 -166 0
-165 164 -166 0
-165 -164 166 0
167 166 168 0
167 -166 -168 0
-167 166 -168 0
-167 -166 168 0
169 168 170 0
169 -168 -170 0
-169 168 -170 0
-169 -168 170 0
171 170 172 0
171 -170 -172 0
-171 170 -172 0
-171 -170 172 0
173 172 174 0
173 -172 -174 0
-173 172 -174 0
-173 -172 174 0
175 174 176 0
175 -174 -176 0
-175 174 -176 0
-175 -174 176 0
